(declare-fun _for_it_23 () Int)
(declare-fun _for_it_32 () Int)
(declare-fun kfdia () Int)
(declare-fun kidia () Int)
(declare-fun klev () Int)
(declare-fun ncldtop () Int)

(assert (forall ((_if_cond_20_val (Array Int Int)))
  (and
    (and
      (<= 0 _for_it_32)
      (<= (+ _for_it_32 1) 4)
      (<= kidia (+ kfdia (- 1)))
      (<= ncldtop (+ klev (- 1)))
    )
    (forall ((_for_it_33_0 Int) (_for_it_33_1 Int))
      (or
        (not (= (select _if_cond_20_val (- (+ _for_it_32 (* 4 _for_it_23) 5) (* ncldtop 4))) 1))
        (not (<= _for_it_33_0 (+ kfdia (- 1))))
        (not (<= (+ kidia (- 1)) _for_it_33_0))
        (not (= _for_it_33_0 _for_it_33_1))
        (not (= _for_it_32 (+ _for_it_32 1)))
        (not (<= _for_it_33_1 (+ kfdia (- 1))))
        (not (= (select _if_cond_20_val (- (+ _for_it_32 (* 4 _for_it_23) 4) (* ncldtop 4))) 1))
        (not (<= (+ kidia (- 1)) _for_it_33_1))
      )
    )
    (not (= (- (+ _for_it_32 (* 4 _for_it_23) 4) (* ncldtop 4)) (- (+ _for_it_32 (* 4 _for_it_23) 5) (* ncldtop 4))))
  )
))

(check-sat)